<number of tasks>
50

<cycle time>
1000

<order strength>
0.196


<task times>
1 435
2 479
3 384
4 516
5 562
6 432
7 622
8 452
9 483
10 608
11 682
12 500
13 502
14 395
15 404
16 570
17 438
18 445
19 557
20 328
21 450
22 363
23 521
24 463
25 344
26 552
27 474
28 271
29 572
30 437
31 398
32 388
33 604
34 580
35 513
36 697
37 486
38 473
39 611
40 339
41 501
42 484
43 449
44 720
45 574
46 376
47 379
48 585
49 488
50 856

<precedence relations>
1,12
1,13
1,17
4,32
8,28
9,16
10,13
10,15
11,14
11,30
12,18
13,18
13,43
14,20
14,29
15,19
15,46
16,18
16,21
16,37
17,22
18,26
18,27
18,36
19,23
20,25
20,32
21,24
21,28
22,26
22,49
22,50
23,31
23,43
24,29
24,30
29,32
29,39
30,33
31,34
31,35
31,36
31,37
33,39
33,40
33,42
34,38
34,41
35,39
35,45
38,45
38,49
38,50
39,48
40,43
40,46
40,47
40,50
41,44

<end>
